(set-logic QF_S)
(declare-fun var0 () String)
(assert (str.in.re var0 (re.++ (re.* (re.* (str.to.re "000"))) (re.++ (re.* (re.+ (str.to.re "11"))) (re.++ (re.+ (re.+ (str.to.re "222"))) (re.++ (re.+ (re.+ (str.to.re "333"))) (re.++ (re.+ (re.+ (str.to.re "444"))) (re.++ (re.* (re.+ (str.to.re "55"))) (re.++ (re.* (re.* (str.to.re "6"))) (re.++ (re.+ (re.* (str.to.re "77"))) (re.++ (re.* (re.union (str.to.re "88") (str.to.re "99"))) (re.++ (re.+ (re.* (str.to.re "aaa"))) (re.++ (re.+ (re.union (str.to.re "b") (str.to.re "cc"))) (re.++ (re.* (re.union (str.to.re "d") (str.to.re "eee"))) (re.++ (re.+ (re.+ (str.to.re "f"))) (re.++ (re.+ (re.+ (str.to.re "gg"))) (re.++ (re.+ (re.union (str.to.re "h") (str.to.re "iii"))) (re.++ (re.* (re.+ (str.to.re "j"))) (re.++ (re.+ (re.union (str.to.re "kk") (str.to.re "ll"))) (re.++ (re.* (re.* (str.to.re "mm"))) (re.++ (re.union (re.union (str.to.re "nnn") (str.to.re "ooo")) (re.union (str.to.re "ppp") (str.to.re "qqq"))) (re.++ (re.union (re.* (str.to.re "rrr")) (re.* (str.to.re "sss"))) (re.++ (re.+ (re.+ (str.to.re "t"))) (re.++ (re.union (re.union (str.to.re "uuu") (str.to.re "vvv")) (re.union (str.to.re "ww") (str.to.re "xx"))) (re.++ (re.* (re.* (str.to.re "yy"))) (re.++ (re.union (re.union (str.to.re "zz") (str.to.re "AA")) (re.union (str.to.re "BB") (str.to.re "CC"))) (re.++ (re.union (re.union (str.to.re "D") (str.to.re "E")) (re.union (str.to.re "FFF") (str.to.re "G"))) (re.++ (re.+ (re.* (str.to.re "HH"))) (re.++ (re.* (re.union (str.to.re "I") (str.to.re "J"))) (re.++ (re.+ (re.* (str.to.re "KK"))) (re.++ (re.* (re.+ (str.to.re "LLL"))) (re.++ (re.+ (re.+ (str.to.re "M"))) (re.++ (re.* (re.union (str.to.re "NN") (str.to.re "OO"))) (re.++ (re.* (re.* (str.to.re "P"))) (re.++ (re.* (re.* (str.to.re "QQ"))) (re.++ (re.union (re.union (str.to.re "RR") (str.to.re "SS")) (re.union (str.to.re "T") (str.to.re "U"))) (re.++ (re.+ (re.+ (str.to.re "VVV"))) (re.++ (re.* (re.* (str.to.re "WW"))) (re.++ (re.+ (re.union (str.to.re "X") (str.to.re "Y"))) (re.++ (re.+ (re.union (str.to.re "ZZZ") (str.to.re "!!!"))) (re.++ (re.+ (re.* (str.to.re """"""""))) (re.++ (re.union (re.union (str.to.re "#") (str.to.re "$")) (re.union (str.to.re "%%") (str.to.re "&&"))) (re.++ (re.+ (re.* (str.to.re "''"))) (re.++ (re.union (re.+ (str.to.re "(")) (re.+ (str.to.re ")))"))) (re.++ (re.union (re.* (str.to.re "***")) (re.* (str.to.re "++"))) (re.++ (re.+ (re.union (str.to.re ",,,") (str.to.re "--"))) (re.++ (re.+ (re.* (str.to.re ".."))) (re.++ (re.+ (re.* (str.to.re "/"))) (re.++ (re.* (re.union (str.to.re ":") (str.to.re ";;;"))) (re.++ (re.* (re.* (str.to.re "<<"))) (re.++ (re.+ (re.* (str.to.re "="))) (re.++ (re.union (re.+ (str.to.re ">>")) (re.+ (str.to.re "?"))) (re.++ (re.* (re.* (str.to.re "@@"))) (re.++ (re.+ (re.union (str.to.re "[") (str.to.re "\\"))) (re.++ (re.+ (re.* (str.to.re "]]]"))) (re.++ (re.+ (re.* (str.to.re "^^"))) (re.* (re.* (str.to.re "_")))))))))))))))))))))))))))))))))))))))))))))))))))))))))))
(check-sat)